# Solution for model Model5
# Objective value = 49
y[0,0,2] 0
y[0,0,3] 1
y[0,1,1] 1
y[0,1,3] 0
y[0,2,1] 0
y[0,2,2] 1
y[1,0,2] 0
y[1,0,3] 1
y[1,1,1] 0
y[1,1,2] 1
y[1,2,1] 0
y[1,2,3] 1
y[2,0,0] 1
y[2,0,1] 0
y[2,1,2] 1
y[2,1,3] 0
y[2,2,1] 1
y[2,2,3] 0
x[0,0,0,0] 0
x[0,0,0,1] 0
x[0,0,0,2] 1
x[0,0,1,0] 0
x[0,0,1,1] 0
x[0,0,1,2] 0
x[0,0,2,0] 0
x[0,0,2,1] 1
x[0,0,2,2] 0
x[0,1,0,0] 1
x[0,1,0,1] 0
x[0,1,0,2] 1
x[0,1,1,0] 1
x[0,1,1,1] 0
x[0,1,1,2] 0
x[0,1,2,0] 0
x[0,1,2,1] 0
x[0,1,2,2] 0
x[0,2,0,0] 1
x[0,2,0,1] 0
x[0,2,0,2] 0
x[0,2,1,0] 0
x[0,2,1,1] 0
x[0,2,1,2] 0
x[0,2,2,0] 0
x[0,2,2,1] 0
x[0,2,2,2] 1
x[1,0,0,0] 0
x[1,0,0,1] 0
x[1,0,0,2] 0
x[1,0,1,0] 0
x[1,0,1,1] 0
x[1,0,1,2] 1
x[1,0,2,0] 0
x[1,0,2,1] 0
x[1,0,2,2] 0
x[1,1,0,0] 0
x[1,1,0,1] 0
x[1,1,0,2] 0
x[1,1,1,0] 0
x[1,1,1,1] 0
x[1,1,1,2] 0
x[1,1,2,0] 0
x[1,1,2,1] 1
x[1,1,2,2] 1
x[1,2,0,0] 0
x[1,2,0,1] 0
x[1,2,0,2] 0
x[1,2,1,0] 0
x[1,2,1,1] 0
x[1,2,1,2] 0
x[1,2,2,0] 0
x[1,2,2,1] 0
x[1,2,2,2] 0
x[2,0,0,0] 0
x[2,0,0,1] 0
x[2,0,0,2] 0
x[2,0,1,0] 0
x[2,0,1,1] 0
x[2,0,1,2] 0
x[2,0,2,0] 0
x[2,0,2,1] 0
x[2,0,2,2] 0
x[2,1,0,0] 0
x[2,1,0,1] 0
x[2,1,0,2] 0
x[2,1,1,0] 0
x[2,1,1,1] 0
x[2,1,1,2] 0
x[2,1,2,0] 0
x[2,1,2,1] 0
x[2,1,2,2] 0
x[2,2,0,0] 0
x[2,2,0,1] 0
x[2,2,0,2] 0
x[2,2,1,0] 0
x[2,2,1,1] 0
x[2,2,1,2] 0
x[2,2,2,0] 0
x[2,2,2,1] 0
x[2,2,2,2] 0
s[0,0,2] 0
s[0,0,3] 5
s[0,1,1] 0
s[0,1,3] 0
s[0,2,1] 0
s[0,2,2] 1
s[1,0,2] 0
s[1,0,3] 24
s[1,1,1] 0
s[1,1,2] 19
s[1,2,1] 0
s[1,2,3] 11
s[2,0,0] 12
s[2,0,1] 0
s[2,1,2] 6
s[2,1,3] 0
s[2,2,1] 10
s[2,2,3] 0
Z_FO 49
